p cnf 13 37
-13 -12 -2 0
-13 -10 1 0
-13 -8 -4 0
13 -7 -3 0
13 -6 4 0
13 -6 -4 0
13 -6 3 0
-13 4 -3 0
-12 11 -6 0
12 -10 3 0
12 8 2 0
12 6 4 0
12 4 -1 0
-11 -9 2 0
11 -8 -7 0
-11 -8 -5 0
-11 8 -4 0
-11 -7 3 0
10 -5 4 0
-10 5 -3 0
-10 -4 2 0
-10 -4 1 0
9 6 -2 0
-9 3 -2 0
-8 -7 -4 0
8 6 5 0
8 -6 1 0
8 -5 3 0
-8 4 2 0
-8 -4 -1 0
7 6 -2 0
-7 -5 -4 0
-7 4 2 0
-6 -5 -2 0
-6 4 -2 0
-5 -2 -1 0
-4 3 -1 0
